packages/rhetor/rhetor-1.1.3-cp311-cp311-manylinux_2_17_x86_64.manylinux2014_x86_64.whl/pyopl/opl_models/set_partitioning/set_partitioning.dat
nbSets = 3;
nbElements = 4;
cost = [5, 6, 7];
a = [ [1, 0, 0, 1],   // set 1 covers elements 1 and 4
      [0, 1, 1, 0],   // set 2 covers elements 2 and 3
      [0, 0, 1, 1] ]; // set 3 covers elements 3 and 4
