packages/rhetor/rhetor-1.1.2-pp39-pypy39_pp73-win_amd64.whl/pyopl/opl_models/set_partitioning/set_partitioning.txt
From a collection of candidate sets with given costs, the goal is to choose a subset such that every element is covered by exactly one selected set—no element is uncovered or covered more than once—while minimizing the total cost of the chosen sets.